(benchmark gametime
:status unknown
:logic QF_AUFBV
:extrafuns ((gtAGG__rtDWork  BitVec[32]))
:extrafuns ((gtINDEX48  BitVec[32]))
:extrafuns ((gtINDEX47  BitVec[32]))
:extrafuns ((gtINDEX46  BitVec[32]))
:extrafuns ((gtINDEX45  BitVec[32]))
:extrafuns ((gtINDEX44  BitVec[32]))
:extrafuns ((gtINDEX43  BitVec[32]))
:extrafuns ((gtINDEX42  BitVec[32]))
:extrafuns ((gtINDEX40  BitVec[32]))
:extrafuns ((gtFIELD__bitsForTID0__gtAGG____anonstruct_D_Work_4  Array[32:32]))
:extrafuns ((gtINDEX41  BitVec[32]))
:extrafuns ((gtINDEX38  BitVec[32]))
:extrafuns ((gtINDEX39  BitVec[32]))
:extrafuns ((gtINDEX37  BitVec[32]))
:extrafuns ((gtINDEX35  BitVec[32]))
:extrafuns ((gtINDEX36  BitVec[32]))
:extrafuns ((gtINDEX34  BitVec[32]))
:extrafuns ((gtINDEX32  BitVec[32]))
:extrafuns ((gtINDEX33  BitVec[32]))
:extrafuns ((gtINDEX30  BitVec[32]))
:extrafuns ((gtINDEX31  BitVec[32]))
:extrafuns ((gtINDEX28  BitVec[32]))
:extrafuns ((gtINDEX29  BitVec[32]))
:extrafuns ((gtINDEX26  BitVec[32]))
:extrafuns ((gtINDEX27  BitVec[32]))
:extrafuns ((gtINDEX24  BitVec[32]))
:extrafuns ((gtINDEX25  BitVec[32]))
:extrafuns ((gtINDEX22  BitVec[32]))
:extrafuns ((gtINDEX23  BitVec[32]))
:extrafuns ((gtINDEX20  BitVec[32]))
:extrafuns ((gtINDEX21  BitVec[32]))
:extrafuns ((gtINDEX18  BitVec[32]))
:extrafuns ((gtINDEX19  BitVec[32]))
:extrafuns ((gtINDEX16  BitVec[32]))
:extrafuns ((gtINDEX17  BitVec[32]))
:extrafuns ((gtINDEX14  BitVec[32]))
:extrafuns ((gtINDEX15  BitVec[32]))
:extrafuns ((gtINDEX12  BitVec[32]))
:extrafuns ((gtINDEX13  BitVec[32]))
:extrafuns ((gtINDEX10  BitVec[32]))
:extrafuns ((gtINDEX11  BitVec[32]))
:extrafuns ((gtINDEX8  BitVec[32]))
:extrafuns ((gtINDEX9  BitVec[32]))
:extrafuns ((gtINDEX7  BitVec[32]))
:extrafuns ((gtINDEX6  BitVec[32]))
:extrafuns ((gtINDEX4  BitVec[32]))
:extrafuns ((gtINDEX5  BitVec[32]))
:extrafuns ((gtINDEX2  BitVec[32]))
:extrafuns ((gtINDEX3  BitVec[32]))
:extrafuns ((gtINDEX0  BitVec[32]))
:extrafuns ((gtINDEX1  BitVec[32]))
:extrafuns ((gtFIELD__sh_rst__gtAGG____anonstruct_D_Work_4  Array[32:32]))
:extrafuns ((gtFIELD__sent__gtAGG____anonstruct_D_Work_4  Array[32:32]))
:extrafuns ((gtFIELD__is_Eng__gtAGG____anonstruct_bitsForTID0_5  Array[32:1]))
:extrafuns ((gtFIELD__is_active_Eng__gtAGG____anonstruct_bitsForTID0_5  Array[32:1]))
:extrafuns ((gtFIELD__temporalCounter_i5__gtAGG____anonstruct_D_Work_4  Array[32:32]))
:extrafuns ((gtFIELD__temporalCounter_i5__gtAGG____anonstruct_D_Work_4_1_  Array[32:32]))
:extrafuns ((gtFIELD__is_PURI__gtAGG____anonstruct_bitsForTID0_5  Array[32:2]))
:extrafuns ((gtFIELD__is_PURI__gtAGG____anonstruct_bitsForTID0_5_1_  Array[32:2]))
:extrafuns ((gtFIELD__n_t_a__gtAGG____anonstruct_D_Work_4  Array[32:32]))
:extrafuns ((gtFIELD__n_t_a__gtAGG____anonstruct_D_Work_4_1_  Array[32:32]))
:extrafuns ((sfEvent_  BitVec[32]))
:extrafuns ((gtFIELD__is_active_PURI__gtAGG____anonstruct_bitsForTID0_5  Array[32:1]))
:extrafuns ((gtFIELD__is_active_PVRP__gtAGG____anonstruct_bitsForTID0_5  Array[32:1]))
:extrafuns ((gtFIELD__is_PPVARP__gtAGG____anonstruct_bitsForTID0_5  Array[32:2]))
:extrafuns ((gtFIELD__is_PPVARP__gtAGG____anonstruct_bitsForTID0_5_1_  Array[32:2]))
:extrafuns ((gtFIELD__is_active_PPVARP__gtAGG____anonstruct_bitsForTID0_5  Array[32:1]))
:extrafuns ((gtFIELD__is_PLRI__gtAGG____anonstruct_bitsForTID0_5  Array[32:2]))
:extrafuns ((gtFIELD__is_PLRI__gtAGG____anonstruct_bitsForTID0_5_1_  Array[32:2]))
:extrafuns ((gtFIELD__is_active_PLRI__gtAGG____anonstruct_bitsForTID0_5  Array[32:1]))
:extrafuns ((gtFIELD__is_PAVI__gtAGG____anonstruct_bitsForTID0_5  Array[32:3]))
:extrafuns ((gtFIELD__is_PAVI__gtAGG____anonstruct_bitsForTID0_5_1_  Array[32:3]))
:extrafuns ((gtFIELD__is_active_PAVI__gtAGG____anonstruct_bitsForTID0_5  Array[32:1]))
:extrapreds ((constraint82 ))
:extrapreds ((constraint81 ))
:extrapreds ((constraint80 ))
:extrapreds ((constraint79 ))
:extrapreds ((constraint78 ))
:extrapreds ((constraint77 ))
:extrapreds ((constraint76 ))
:extrapreds ((constraint75 ))
:extrapreds ((constraint74 ))
:extrapreds ((constraint73 ))
:extrapreds ((constraint72 ))
:extrapreds ((constraint71 ))
:extrapreds ((constraint70 ))
:extrapreds ((constraint69 ))
:extrapreds ((constraint68 ))
:extrapreds ((constraint67 ))
:extrapreds ((constraint66 ))
:extrapreds ((constraint65 ))
:extrapreds ((constraint64 ))
:extrapreds ((constraint63 ))
:extrapreds ((constraint62 ))
:extrapreds ((constraint61 ))
:extrapreds ((constraint60 ))
:extrapreds ((constraint59 ))
:extrapreds ((constraint58 ))
:extrapreds ((constraint57 ))
:extrapreds ((constraint56 ))
:extrapreds ((constraint55 ))
:extrapreds ((constraint54 ))
:extrapreds ((constraint53 ))
:extrapreds ((constraint52 ))
:extrapreds ((constraint51 ))
:extrapreds ((constraint50 ))
:extrapreds ((constraint49 ))
:extrapreds ((constraint48 ))
:extrapreds ((constraint47 ))
:extrapreds ((constraint46 ))
:extrapreds ((constraint45 ))
:extrapreds ((constraint44 ))
:extrapreds ((constraint43 ))
:extrapreds ((constraint42 ))
:extrapreds ((constraint41 ))
:extrapreds ((constraint40 ))
:extrapreds ((constraint39 ))
:extrapreds ((constraint38 ))
:extrapreds ((constraint37 ))
:extrapreds ((constraint36 ))
:extrapreds ((constraint35 ))
:extrapreds ((constraint34 ))
:extrapreds ((constraint33 ))
:extrapreds ((constraint32 ))
:extrapreds ((constraint31 ))
:extrapreds ((constraint30 ))
:extrapreds ((constraint29 ))
:extrapreds ((constraint28 ))
:extrapreds ((constraint27 ))
:extrapreds ((constraint26 ))
:extrapreds ((constraint25 ))
:extrapreds ((constraint24 ))
:extrapreds ((constraint23 ))
:extrapreds ((constraint22 ))
:extrapreds ((constraint21 ))
:extrapreds ((constraint20 ))
:extrapreds ((constraint19 ))
:extrapreds ((constraint18 ))
:extrapreds ((constraint17 ))
:extrapreds ((constraint16 ))
:extrapreds ((constraint15 ))
:extrapreds ((constraint14 ))
:extrapreds ((constraint13 ))
:extrapreds ((constraint12 ))
:extrapreds ((constraint11 ))
:extrapreds ((constraint10 ))
:extrapreds ((constraint9 ))
:extrapreds ((constraint8 ))
:extrapreds ((constraint7 ))
:extrapreds ((constraint6 ))
:extrapreds ((constraint5 ))
:extrapreds ((constraint4 ))
:extrapreds ((constraint3 ))
:extrapreds ((constraint2 ))
:extrapreds ((constraint1 ))
:extrapreds ((constraint0 ))
:formula
(flet ($x445 (and constraint0 constraint1 constraint2 constraint3 constraint4 constraint5 constraint6 constraint7 constraint8 constraint9 constraint10 constraint11 constraint12 constraint13 constraint14 constraint15 constraint16 constraint17 constraint18 constraint19 constraint20 constraint21 constraint22 constraint23 constraint24 constraint25 constraint26 constraint27 constraint28 constraint29 constraint30 constraint31 constraint32 constraint33 constraint34 constraint35 constraint36 constraint37 constraint38 constraint39 constraint40 constraint41 constraint42 constraint43 constraint44 constraint45 constraint46 constraint47 constraint48 constraint49 constraint50 constraint51 constraint52 constraint53 constraint54 constraint55 constraint56 constraint57 constraint58 constraint59 constraint60 constraint61 constraint62 constraint63 constraint64 constraint65 constraint66 constraint67 constraint68 constraint69 constraint70 constraint71 constraint72 constraint73 constraint74 constraint75 constraint76 constraint77 constraint78 constraint79 constraint80 constraint81 constraint82))
(flet ($x270 (= gtINDEX41 (select gtFIELD__bitsForTID0__gtAGG____anonstruct_D_Work_4 gtINDEX40)))
(flet ($x266 (= gtINDEX39 (select gtFIELD__bitsForTID0__gtAGG____anonstruct_D_Work_4 gtINDEX38)))
(flet ($x261 (= gtINDEX36 (select gtFIELD__bitsForTID0__gtAGG____anonstruct_D_Work_4 gtINDEX35)))
(flet ($x256 (= gtINDEX33 (select gtFIELD__bitsForTID0__gtAGG____anonstruct_D_Work_4 gtINDEX32)))
(flet ($x252 (= gtINDEX31 (select gtFIELD__bitsForTID0__gtAGG____anonstruct_D_Work_4 gtINDEX30)))
(flet ($x248 (= gtINDEX29 (select gtFIELD__bitsForTID0__gtAGG____anonstruct_D_Work_4 gtINDEX28)))
(flet ($x244 (= gtINDEX27 (select gtFIELD__bitsForTID0__gtAGG____anonstruct_D_Work_4 gtINDEX26)))
(flet ($x240 (= gtINDEX25 (select gtFIELD__bitsForTID0__gtAGG____anonstruct_D_Work_4 gtINDEX24)))
(flet ($x236 (= gtINDEX23 (select gtFIELD__bitsForTID0__gtAGG____anonstruct_D_Work_4 gtINDEX22)))
(flet ($x232 (= gtINDEX21 (select gtFIELD__bitsForTID0__gtAGG____anonstruct_D_Work_4 gtINDEX20)))
(flet ($x228 (= gtINDEX19 (select gtFIELD__bitsForTID0__gtAGG____anonstruct_D_Work_4 gtINDEX18)))
(flet ($x224 (= gtINDEX17 (select gtFIELD__bitsForTID0__gtAGG____anonstruct_D_Work_4 gtINDEX16)))
(flet ($x220 (= gtINDEX15 (select gtFIELD__bitsForTID0__gtAGG____anonstruct_D_Work_4 gtINDEX14)))
(flet ($x216 (= gtINDEX13 (select gtFIELD__bitsForTID0__gtAGG____anonstruct_D_Work_4 gtINDEX12)))
(flet ($x212 (= gtINDEX11 (select gtFIELD__bitsForTID0__gtAGG____anonstruct_D_Work_4 gtINDEX10)))
(flet ($x208 (= gtINDEX9 (select gtFIELD__bitsForTID0__gtAGG____anonstruct_D_Work_4 gtINDEX8)))
(flet ($x202 (= gtINDEX5 (select gtFIELD__bitsForTID0__gtAGG____anonstruct_D_Work_4 gtINDEX4)))
(flet ($x198 (= gtINDEX3 (select gtFIELD__bitsForTID0__gtAGG____anonstruct_D_Work_4 gtINDEX2)))
(flet ($x194 (= gtINDEX1 (select gtFIELD__bitsForTID0__gtAGG____anonstruct_D_Work_4 gtINDEX0)))
(flet ($x188 (= (select gtFIELD__sh_rst__gtAGG____anonstruct_D_Work_4 gtINDEX48) bv1[32]))
(flet ($x184 (= (select gtFIELD__sent__gtAGG____anonstruct_D_Work_4 gtINDEX47) bv3[32]))
(flet ($x180 (= (select gtFIELD__sent__gtAGG____anonstruct_D_Work_4 gtINDEX46) bv2[32]))
(flet ($x176 (= (select gtFIELD__sent__gtAGG____anonstruct_D_Work_4 gtINDEX45) bv1[32]))
(flet ($x172 (= (select gtFIELD__sent__gtAGG____anonstruct_D_Work_4 gtINDEX44) (bvmul bv4294967295[32] bv1[32])))
(flet ($x166 (= (select gtFIELD__sent__gtAGG____anonstruct_D_Work_4 gtINDEX43) bv9[32]))
(flet ($x161 (= (select gtFIELD__sent__gtAGG____anonstruct_D_Work_4 gtINDEX42) bv4[32]))
(let (?x157 (zero_extend[31] (select gtFIELD__is_Eng__gtAGG____anonstruct_bitsForTID0_5 gtINDEX41)))
(let (?x151 (select gtFIELD__is_active_Eng__gtAGG____anonstruct_bitsForTID0_5 gtINDEX39))
(let (?x148 (store gtFIELD__temporalCounter_i5__gtAGG____anonstruct_D_Work_4 gtINDEX37 bv0[32]))
(flet ($x327 (iff constraint24 (= gtFIELD__temporalCounter_i5__gtAGG____anonstruct_D_Work_4_1_ ?x148)))
(let (?x145 (store gtFIELD__is_PURI__gtAGG____anonstruct_bitsForTID0_5 gtINDEX36 (extract[1:0] bv1[32])))
(flet ($x325 (iff constraint23 (= gtFIELD__is_PURI__gtAGG____anonstruct_bitsForTID0_5_1_ ?x145)))
(flet ($x142 (= gtFIELD__n_t_a__gtAGG____anonstruct_D_Work_4_1_ (store gtFIELD__n_t_a__gtAGG____anonstruct_D_Work_4 gtINDEX34 bv0[32])))
(let (?x134 (select gtFIELD__is_PURI__gtAGG____anonstruct_bitsForTID0_5 gtINDEX33))
(let (?x129 (select gtFIELD__is_active_PURI__gtAGG____anonstruct_bitsForTID0_5 gtINDEX31))
(let (?x123 (select gtFIELD__is_active_PVRP__gtAGG____anonstruct_bitsForTID0_5 gtINDEX29))
(let (?x95 (extract[1:0] bv0[32]))
(let (?x120 (store gtFIELD__is_PPVARP__gtAGG____anonstruct_bitsForTID0_5 gtINDEX27 ?x95))
(flet ($x311 (iff constraint16 (= gtFIELD__is_PPVARP__gtAGG____anonstruct_bitsForTID0_5_1_ ?x120)))
(let (?x114 (select gtFIELD__is_PPVARP__gtAGG____anonstruct_bitsForTID0_5 gtINDEX25))
(let (?x109 (select gtFIELD__is_PPVARP__gtAGG____anonstruct_bitsForTID0_5 gtINDEX23))
(let (?x104 (select gtFIELD__is_PPVARP__gtAGG____anonstruct_bitsForTID0_5 gtINDEX21))
(let (?x99 (select gtFIELD__is_active_PPVARP__gtAGG____anonstruct_bitsForTID0_5 gtINDEX19))
(let (?x96 (store gtFIELD__is_PLRI__gtAGG____anonstruct_bitsForTID0_5 gtINDEX17 ?x95))
(flet ($x301 (iff constraint11 (= gtFIELD__is_PLRI__gtAGG____anonstruct_bitsForTID0_5_1_ ?x96)))
(let (?x90 (select gtFIELD__is_PLRI__gtAGG____anonstruct_bitsForTID0_5 gtINDEX15))
(let (?x85 (select gtFIELD__is_PLRI__gtAGG____anonstruct_bitsForTID0_5 gtINDEX13))
(let (?x80 (select gtFIELD__is_active_PLRI__gtAGG____anonstruct_bitsForTID0_5 gtINDEX11))
(let (?x77 (store gtFIELD__is_PAVI__gtAGG____anonstruct_bitsForTID0_5 gtINDEX9 (extract[2:0] bv1[32])))
(flet ($x293 (iff constraint7 (= gtFIELD__is_PAVI__gtAGG____anonstruct_bitsForTID0_5_1_ ?x77)))
(flet ($x71 (= (select gtFIELD__sent__gtAGG____anonstruct_D_Work_4 gtINDEX7) bv0[32]))
(flet ($x67 (= (select gtFIELD__sent__gtAGG____anonstruct_D_Work_4 gtINDEX6) bv0[32]))
(let (?x62 (zero_extend[29] (select gtFIELD__is_PAVI__gtAGG____anonstruct_bitsForTID0_5 gtINDEX5)))
(let (?x56 (zero_extend[29] (select gtFIELD__is_PAVI__gtAGG____anonstruct_bitsForTID0_5 gtINDEX3)))
(let (?x49 (select gtFIELD__is_active_PAVI__gtAGG____anonstruct_bitsForTID0_5 gtINDEX1))
(flet ($x444 (and (iff constraint0 (not (= sfEvent_ bv8[32]))) (iff constraint1 (not (= (zero_extend[31] ?x49) bv0[32]))) (iff constraint2 (not (= ?x56 bv1[32]))) (iff constraint3 (= ?x62 bv2[32])) (iff constraint4 (not $x67)) (iff constraint5 (not $x71)) (iff constraint6 (= sfEvent_ bv5[32])) $x293 (iff constraint8 (not (= (zero_extend[31] ?x80) bv0[32]))) (iff constraint9 (not (= (zero_extend[30] ?x85) bv1[32]))) (iff constraint10 (not (= (zero_extend[30] ?x90) bv2[32]))) $x301 (iff constraint12 (not (= (zero_extend[31] ?x99) bv0[32]))) (iff constraint13 (not (= (zero_extend[30] ?x104) bv1[32]))) (iff constraint14 (not (= (zero_extend[30] ?x109) bv2[32]))) (iff constraint15 (not (= (zero_extend[30] ?x114) bv3[32]))) $x311 (iff constraint17 (not (not (= (zero_extend[31] ?x123) bv0[32])))) (iff constraint18 (not (= (zero_extend[31] ?x129) bv0[32]))) (iff constraint19 (= (zero_extend[30] ?x134) bv1[32])) (iff constraint20 (not (= sfEvent_ bv4[32]))) (iff constraint21 (= sfEvent_ bv5[32])) (iff constraint22 $x142) $x325 $x327 (iff constraint25 (not (= (zero_extend[31] ?x151) bv0[32]))) (iff constraint26 (= ?x157 bv1[32])) (iff constraint27 (not $x161)) (iff constraint28 (not $x166)) (iff constraint29 (not $x172)) (iff constraint30 (not $x176)) (iff constraint31 (not $x180)) (iff constraint32 (not $x184)) (iff constraint33 (not $x188)) (iff constraint34 (= gtINDEX0 gtAGG__rtDWork)) (iff constraint35 $x194) (iff constraint36 (= gtINDEX2 gtAGG__rtDWork)) (iff constraint37 $x198) (iff constraint38 (= gtINDEX4 gtAGG__rtDWork)) (iff constraint39 $x202) (iff constraint40 (= gtINDEX6 gtAGG__rtDWork)) (iff constraint41 (= gtINDEX7 gtAGG__rtDWork)) (iff constraint42 (= gtINDEX8 gtAGG__rtDWork)) (iff constraint43 $x208) (iff constraint44 (= gtINDEX10 gtAGG__rtDWork)) (iff constraint45 $x212) (iff constraint46 (= gtINDEX12 gtAGG__rtDWork)) (iff constraint47 $x216) (iff constraint48 (= gtINDEX14 gtAGG__rtDWork)) (iff constraint49 $x220) (iff constraint50 (= gtINDEX16 gtAGG__rtDWork)) (iff constraint51 $x224) (iff constraint52 (= gtINDEX18 gtAGG__rtDWork)) (iff constraint53 $x228) (iff constraint54 (= gtINDEX20 gtAGG__rtDWork)) (iff constraint55 $x232) (iff constraint56 (= gtINDEX22 gtAGG__rtDWork)) (iff constraint57 $x236) (iff constraint58 (= gtINDEX24 gtAGG__rtDWork)) (iff constraint59 $x240) (iff constraint60 (= gtINDEX26 gtAGG__rtDWork)) (iff constraint61 $x244) (iff constraint62 (= gtINDEX28 gtAGG__rtDWork)) (iff constraint63 $x248) (iff constraint64 (= gtINDEX30 gtAGG__rtDWork)) (iff constraint65 $x252) (iff constraint66 (= gtINDEX32 gtAGG__rtDWork)) (iff constraint67 $x256) (iff constraint68 (= gtINDEX34 gtAGG__rtDWork)) (iff constraint69 (= gtINDEX35 gtAGG__rtDWork)) (iff constraint70 $x261) (iff constraint71 (= gtINDEX37 gtAGG__rtDWork)) (iff constraint72 (= gtINDEX38 gtAGG__rtDWork)) (iff constraint73 $x266) (iff constraint74 (= gtINDEX40 gtAGG__rtDWork)) (iff constraint75 $x270) (iff constraint76 (= gtINDEX42 gtAGG__rtDWork)) (iff constraint77 (= gtINDEX43 gtAGG__rtDWork)) (iff constraint78 (= gtINDEX44 gtAGG__rtDWork)) (iff constraint79 (= gtINDEX45 gtAGG__rtDWork)) (iff constraint80 (= gtINDEX46 gtAGG__rtDWork)) (iff constraint81 (= gtINDEX47 gtAGG__rtDWork)) (iff constraint82 (= gtINDEX48 gtAGG__rtDWork))))
(and $x444 $x445))))))))))))))))))))))))))))))))))))))))))))))))))))))))))
)
